Test: fpga11_13_uns_rcr.cnf
Options: vanilla
WARNING: for repeatability, setting FPU to use double precision
============================[ Problem Statistics ]=============================
|                                                                             |
|  Number of symmetries:           44                                         |
|  Number of invertingSyms:         0                                         |
|  Number of variables:           286                                         |
|  Number of clauses:            1742                                         |
|  Parse time:                   0.00 s                                       |
|                                                                             |
============================[ Search Statistics ]==============================
| Conflicts |          ORIGINAL         |          LEARNT          | Progress |
|           |    Vars  Clauses Literals |    Limit  Clauses Lit/Cl |          |
===============================================================================
|       100 |     286     1742     3718 |      638      141     54 |  0.001 % |
|       250 |     286     1742     3718 |      702      449     44 |  0.001 % |
|       475 |     286     1742     3718 |      772      532     43 |  0.001 % |
|       812 |     286     1742     3718 |      850      648     42 |  0.001 % |
|      1318 |     286     1742     3718 |      935      631     41 |  0.001 % |
|      2077 |     286     1742     3718 |     1028      660     41 |  0.001 % |
|      3216 |     286     1742     3718 |     1131      856     42 |  0.001 % |
|      4924 |     286     1742     3718 |     1244      980     44 |  0.001 % |
|      7486 |     286     1742     3718 |     1369     1227     44 |  0.001 % |
|     11330 |     286     1742     3718 |     1506      803     31 |  0.001 % |
===============================================================================
restarts              : 54
conflicts             : 12571          (41349 /sec)
symconflicts          : 1835           (6036 /sec)
decisions             : 19236          (0.00 % random) (63272 /sec)
propagations          : 268453         (883014 /sec)
sympropagations       : 10816          (35577 /sec)
conflict literals     : 583161         (5.62 % deleted)
literals     : 583161         (5.62 % deleted)

HEURISTIC USAGES
random                : 0           
activity w/ lookahead : 0           
activity no lookahead : 0           
original sp           : 19236       
sym count             : 0           

Memory used           : 6.00 MB
CPU time              : 0.304019 s

UNSATISFIABLE
